Maximize
F - f1 - f2

Subject to
F - 15.0y118 - 15.0y87 - 10.0y233 - 10.0y20 - 20.0y51 - 5.0y66 - 5.0y168 - 20.0y293 - 10.0y245 - 10.0y265 - 10.0y11 - 15.0y220 - 20.0y126 - 5.0y173 - 5.0y71 - 10.0y35 - 10.0y105 = 0
f1 - 0.006903s118 - 0.006903s87 - 0.006903s233 - 0.006903s20 - 0.006903s51 - 0.006903s66 - 0.006903s168 - 0.006903s293 - 0.006903s245 - 0.006903s265 - 0.006903s11 - 0.006903s220 - 0.006903s126 - 0.006903s173 - 0.006903s71 - 0.006903s35 - 0.006903s105  = 0
f2 - 0.13y118 - 0.04y87 - 0.49y233 - 1.09y20 - 0.04y51 - 0.25y66 - 0.15y168 - 0.38y293 - 0.15y245 - 0.07y265 - 0.10y11 - 0.28y220 - 0.23y126 - 0.02y173 - 0.01y71 - 0.23y35 - 0.14y105 = 0

x172x87x1 + x172x233x1 + x172x51x1 + x172x293x1 + x172x245x1 + x172x265x1 + x172x11x1 + x172x35x1 + x172x105x1 
<= 1
x238x87x1 + x238x233x1 + x238x51x1 + x238x293x1 + x238x245x1 + x238x265x1 + x238x11x1 + x238x35x1 + x238x105x1 
<= 1
x44x105x1 
<= 1
x271x87x1 + x271x51x1 + x271x245x1 + x271x265x1 + x271x11x1 + x271x35x1 + x271x105x1 
<= 1
x134x87x1 + x134x233x1 + x134x51x1 + x134x293x1 + x134x245x1 + x134x265x1 + x134x11x1 + x134x35x1 + x134x105x1 
<= 2
x151x35x1 + x151x105x1 
<= 1
x61x118x2 + x61x233x2 + x61x20x2 + x61x66x2 + x61x168x2 + x61x293x2 + x61x265x2 + x61x11x2 + x61x220x2 + x61x126x2 + x61x173x2 + x61x71x2 
<= 2
x151x173x2 + x151x71x2 
<= 1
x125x126x3 + x125x71x3 
<= 2

x61x118x2 
- x118x0x2
- x118x11x2 - x118x220x2 - x118x126x2 - x118x173x2 - x118x71x2 
= 0


x172x87x1 + x238x87x1 + x271x87x1 + x134x87x1 
- x87x0x1
- x87x51x1 - x87x11x1 - x87x35x1 - x87x105x1 
= 0


- x87x126x3 - x87x71x3 
= 0

x172x233x1 + x238x233x1 + x134x233x1 
- x233x0x1
- x233x293x1 - x233x245x1 - x233x265x1 - x233x11x1 - x233x35x1 - x233x105x1 
= 0
x61x233x2 
- x233x0x2
- x233x66x2 - x233x168x2 - x233x293x2 - x233x265x2 - x233x11x2 - x233x220x2 - x233x126x2 - x233x173x2 - x233x71x2 
= 0



x61x20x2 
- x20x0x2
- x20x11x2 - x20x220x2 - x20x126x2 - x20x173x2 - x20x71x2 
= 0


x172x51x1 + x238x51x1 + x271x51x1 + x134x51x1 + x87x51x1 
- x51x0x1
- x51x35x1 - x51x105x1 
= 0




x61x66x2 + x233x66x2 
- x66x0x2
- x66x265x2 - x66x11x2 - x66x220x2 - x66x126x2 - x66x173x2 - x66x71x2 
= 0

- x66x245x3 - x66x126x3 - x66x71x3 
= 0


x61x168x2 + x233x168x2 
- x168x0x2
- x168x265x2 - x168x11x2 - x168x220x2 - x168x126x2 - x168x173x2 - x168x71x2 
= 0


x172x293x1 + x238x293x1 + x134x293x1 + x233x293x1 
- x293x0x1
- x293x245x1 - x293x265x1 - x293x11x1 - x293x35x1 - x293x105x1 
= 0
x61x293x2 + x233x293x2 
- x293x0x2
- x293x265x2 - x293x11x2 - x293x220x2 - x293x126x2 - x293x173x2 - x293x71x2 
= 0


x172x245x1 + x238x245x1 + x271x245x1 + x134x245x1 + x233x245x1 + x293x245x1 
- x245x0x1
- x245x265x1 - x245x11x1 - x245x35x1 - x245x105x1 
= 0

x66x245x3 
- x245x0x3
- x245x126x3 - x245x71x3 
= 0

x172x265x1 + x238x265x1 + x271x265x1 + x134x265x1 + x233x265x1 + x293x265x1 + x245x265x1 
- x265x0x1
- x265x11x1 - x265x35x1 - x265x105x1 
= 0
x61x265x2 + x233x265x2 + x66x265x2 + x168x265x2 + x293x265x2 
- x265x0x2
- x265x11x2 - x265x126x2 - x265x173x2 - x265x71x2 
= 0


x172x11x1 + x238x11x1 + x271x11x1 + x134x11x1 + x87x11x1 + x233x11x1 + x293x11x1 + x245x11x1 + x265x11x1 
- x11x0x1
- x11x35x1 - x11x105x1 
= 0
x61x11x2 + x118x11x2 + x233x11x2 + x20x11x2 + x66x11x2 + x168x11x2 + x293x11x2 + x265x11x2 
- x11x0x2
- x11x126x2 - x11x173x2 - x11x71x2 
= 0



x61x220x2 + x118x220x2 + x233x220x2 + x20x220x2 + x66x220x2 + x168x220x2 + x293x220x2 
- x220x0x2

= 0



x61x126x2 + x118x126x2 + x233x126x2 + x20x126x2 + x66x126x2 + x168x126x2 + x293x126x2 + x265x126x2 + x11x126x2 
- x126x0x2

= 0
x125x126x3 + x87x126x3 + x66x126x3 + x245x126x3 
- x126x0x3

= 0


x61x173x2 + x151x173x2 + x118x173x2 + x233x173x2 + x20x173x2 + x66x173x2 + x168x173x2 + x293x173x2 + x265x173x2 + x11x173x2 
- x173x0x2
- x173x71x2 
= 0



x61x71x2 + x151x71x2 + x118x71x2 + x233x71x2 + x20x71x2 + x66x71x2 + x168x71x2 + x293x71x2 + x265x71x2 + x11x71x2 + x173x71x2 
- x71x0x2

= 0
x125x71x3 + x87x71x3 + x66x71x3 + x245x71x3 
- x71x0x3

= 0

x172x35x1 + x238x35x1 + x271x35x1 + x134x35x1 + x151x35x1 + x87x35x1 + x233x35x1 + x51x35x1 + x293x35x1 + x245x35x1 + x265x35x1 + x11x35x1 
- x35x0x1
- x35x105x1 
= 0



x172x105x1 + x238x105x1 + x44x105x1 + x271x105x1 + x134x105x1 + x151x105x1 + x87x105x1 + x233x105x1 + x51x105x1 + x293x105x1 + x245x105x1 + x265x105x1 + x11x105x1 + x35x105x1 
- x105x0x1

= 0



2y118 - x61x118x2 = 0
1y87 - x172x87x1 - x238x87x1 - x271x87x1 - x134x87x1 = 0
1y87 = 0
1y233 - x172x233x1 - x238x233x1 - x134x233x1 = 0
1y233 - x61x233x2 = 0
2y20 - x61x20x2 = 0
2y51 - x172x51x1 - x238x51x1 - x271x51x1 - x134x51x1 - x87x51x1 = 0
1y66 - x61x66x2 - x233x66x2 = 0
1y66 = 0
2y168 - x61x168x2 - x233x168x2 = 0
1y293 - x172x293x1 - x238x293x1 - x134x293x1 - x233x293x1 = 0
1y293 - x61x293x2 - x233x293x2 = 0
1y245 - x172x245x1 - x238x245x1 - x271x245x1 - x134x245x1 - x233x245x1 - x293x245x1 = 0
1y245 - x66x245x3 = 0
1y265 - x172x265x1 - x238x265x1 - x271x265x1 - x134x265x1 - x233x265x1 - x293x265x1 - x245x265x1 = 0
1y265 - x61x265x2 - x233x265x2 - x66x265x2 - x168x265x2 - x293x265x2 = 0
1y11 - x172x11x1 - x238x11x1 - x271x11x1 - x134x11x1 - x87x11x1 - x233x11x1 - x293x11x1 - x245x11x1 - x265x11x1 = 0
1y11 - x61x11x2 - x118x11x2 - x233x11x2 - x20x11x2 - x66x11x2 - x168x11x2 - x293x11x2 - x265x11x2 = 0
2y220 - x61x220x2 - x118x220x2 - x233x220x2 - x20x220x2 - x66x220x2 - x168x220x2 - x293x220x2 = 0
1y126 - x61x126x2 - x118x126x2 - x233x126x2 - x20x126x2 - x66x126x2 - x168x126x2 - x293x126x2 - x265x126x2 - x11x126x2 = 0
1y126 - x125x126x3 - x87x126x3 - x66x126x3 - x245x126x3 = 0
2y173 - x61x173x2 - x151x173x2 - x118x173x2 - x233x173x2 - x20x173x2 - x66x173x2 - x168x173x2 - x293x173x2 - x265x173x2 - x11x173x2 = 0
1y71 - x61x71x2 - x151x71x2 - x118x71x2 - x233x71x2 - x20x71x2 - x66x71x2 - x168x71x2 - x293x71x2 - x265x71x2 - x11x71x2 - x173x71x2 = 0
1y71 - x125x71x3 - x87x71x3 - x66x71x3 - x245x71x3 = 0
2y35 - x172x35x1 - x238x35x1 - x271x35x1 - x134x35x1 - x151x35x1 - x87x35x1 - x233x35x1 - x51x35x1 - x293x35x1 - x245x35x1 - x265x35x1 - x11x35x1 = 0
2y105 - x172x105x1 - x238x105x1 - x44x105x1 - x271x105x1 - x134x105x1 - x151x105x1 - x87x105x1 - x233x105x1 - x51x105x1 - x293x105x1 - x245x105x1 - x265x105x1 - x11x105x1 - x35x105x1 = 0

s61 - s118 + 8.199389z61z118z2 <= 6.94
s61 - s233 + 8.309284z61z233z2 <= 6.94
s61 - s20 + 8.268797z61z20z2 <= 6.94
s61 - s66 + 8.337435z61z66z2 <= 6.94
s61 - s168 + 8.341888z61z168z2 <= 6.94
s61 - s293 + 8.335358z61z293z2 <= 6.94
s61 - s265 + 8.376341z61z265z2 <= 6.94
s61 - s11 + 8.384574z61z11z2 <= 6.94
s61 - s220 + 8.387964z61z220z2 <= 6.94
s61 - s126 + 8.398226z61z126z2 <= 6.94
s61 - s173 + 8.417624z61z173z2 <= 6.94
s61 - s71 + 8.418508z61z71z2 <= 6.94
s172 - s87 + 7.937481z172z87z1 <= 6.48
s172 - s233 + 7.923221z172z233z1 <= 6.48
s172 - s51 + 7.951499z172z51z1 <= 6.48
s172 - s293 + 7.948947z172z293z1 <= 6.48
s172 - s245 + 7.988287z172z245z1 <= 6.48
s172 - s265 + 8.002983z172z265z1 <= 6.48
s172 - s11 + 8.005653z172z11z1 <= 6.48
s172 - s35 + 8.008309z172z35z1 <= 6.48
s172 - s105 + 8.029181z172z105z1 <= 6.48
s238 - s87 + 7.744683z238z87z1 <= 6.53
s238 - s233 + 7.773311z238z233z1 <= 6.53
s238 - s51 + 7.758035z238z51z1 <= 6.53
s238 - s293 + 7.799650z238z293z1 <= 6.53
s238 - s245 + 7.830297z238z245z1 <= 6.53
s238 - s265 + 7.843404z238z265z1 <= 6.53
s238 - s11 + 7.850625z238z11z1 <= 6.53
s238 - s35 + 7.869935z238z35z1 <= 6.53
s238 - s105 + 7.888391z238z105z1 <= 6.53
s44 - s105 + 8.755535z44z105z1 <= 7.23
s125 - s126 + 8.673631z125z126z3 <= 7.29
s125 - s71 + 8.707043z125z71z3 <= 7.29
s271 - s87 + 8.243034z271z87z1 <= 7.01
s271 - s51 + 8.255636z271z51z1 <= 7.01
s271 - s245 + 8.468138z271z245z1 <= 7.01
s271 - s265 + 8.476926z271z265z1 <= 7.01
s271 - s11 + 8.488935z271z11z1 <= 7.01
s271 - s35 + 8.523616z271z35z1 <= 7.01
s271 - s105 + 8.537405z271z105z1 <= 7.01
s134 - s87 + 8.123734z134z87z1 <= 6.86
s134 - s233 + 8.050904z134z233z1 <= 6.86
s134 - s51 + 8.134064z134z51z1 <= 6.86
s134 - s293 + 8.077051z134z293z1 <= 6.86
s134 - s245 + 8.115517z134z245z1 <= 6.86
s134 - s265 + 8.130144z134z265z1 <= 6.86
s134 - s11 + 8.133333z134z11z1 <= 6.86
s134 - s35 + 8.140318z134z35z1 <= 6.86
s134 - s105 + 8.160666z134z105z1 <= 6.86
s151 - s173 + 8.690345z151z173z2 <= 7.32
s151 - s71 + 8.693835z151z71z2 <= 7.32
s151 - s35 + 8.700664z151z35z1 <= 7.32
s151 - s105 + 8.712512z151z105z1 <= 7.32
s118 - s11 + 9.576739z118z11z2 <= 8.27
s118 - s220 + 9.532383z118z220z2 <= 8.27
s118 - s126 + 9.609543z118z126z2 <= 8.27
s118 - s173 + 9.602132z118z173z2 <= 8.27
s118 - s71 + 9.606320z118z71z2 <= 8.27
s87 - s51 + 9.314907z87z51z1 <= 8.30
s87 - s11 + 9.573415z87z11z1 <= 8.30
s87 - s126 + 9.607319z87z126z3 <= 8.30
s87 - s71 + 9.602287z87z71z3 <= 8.30
s87 - s35 + 9.616719z87z35z1 <= 8.30
s87 - s105 + 9.625303z87z105z1 <= 8.30
s233 - s66 + 9.402687z233z66z2 <= 8.36
s233 - s168 + 9.421463z233z168z2 <= 8.36
s233 - s293 + 9.386666z233z293z1 <= 8.36
s233 - s293 + 9.386666z233z293z2 <= 8.36
s233 - s245 + 9.425659z233z245z1 <= 8.36
s233 - s265 + 9.440554z233z265z1 <= 8.36
s233 - s265 + 9.440554z233z265z2 <= 8.36
s233 - s11 + 9.442462z233z11z1 <= 8.36
s233 - s11 + 9.442462z233z11z2 <= 8.36
s233 - s220 + 9.497437z233z220z2 <= 8.36
s233 - s126 + 9.448944z233z126z2 <= 8.36
s233 - s173 + 9.475084z233z173z2 <= 8.36
s233 - s71 + 9.474114z233z71z2 <= 8.36
s233 - s35 + 9.457067z233z35z1 <= 8.36
s233 - s105 + 9.475084z233z105z1 <= 8.36
s20 - s11 + 9.553061z20z11z2 <= 8.37
s20 - s220 + 9.615854z20z220z2 <= 8.37
s20 - s126 + 9.540880z20z126z2 <= 8.37
s20 - s173 + 9.581765z20z173z2 <= 8.37
s20 - s71 + 9.578699z20z71z2 <= 8.37
s51 - s35 + 9.693404z51z35z1 <= 8.38
s51 - s105 + 9.701109z51z105z1 <= 8.38
s66 - s245 + 9.456667z66z245z3 <= 8.43
s66 - s265 + 9.470552z66z265z2 <= 8.43
s66 - s11 + 9.477140z66z11z2 <= 8.43
s66 - s220 + 9.526148z66z220z2 <= 8.43
s66 - s126 + 9.500868z66z126z2 <= 8.43
s66 - s126 + 9.500868z66z126z3 <= 8.43
s66 - s173 + 9.510278z66z173z2 <= 8.43
s66 - s71 + 9.511104z66z71z2 <= 8.43
s66 - s71 + 9.511104z66z71z3 <= 8.43
s168 - s265 + 9.475901z168z265z2 <= 8.44
s168 - s11 + 9.488073z168z11z2 <= 8.44
s168 - s220 + 9.516011z168z220z2 <= 8.44
s168 - s126 + 9.521377z168z126z2 <= 8.44
s168 - s173 + 9.518031z168z173z2 <= 8.44
s168 - s71 + 9.520554z168z71z2 <= 8.44
s293 - s245 + 9.492687z293z245z1 <= 8.45
s293 - s265 + 9.507349z293z265z1 <= 8.45
s293 - s265 + 9.507349z293z265z2 <= 8.45
s293 - s11 + 9.506960z293z11z1 <= 8.45
s293 - s11 + 9.506960z293z11z2 <= 8.45
s293 - s220 + 9.572384z293z220z2 <= 8.45
s293 - s126 + 9.513246z293z126z2 <= 8.45
s293 - s173 + 9.538944z293z173z2 <= 8.45
s293 - s71 + 9.537686z293z71z2 <= 8.45
s293 - s35 + 9.521802z293z35z1 <= 8.45
s293 - s105 + 9.538944z293z105z1 <= 8.45
s245 - s265 + 9.534907z245z265z1 <= 8.52
s245 - s11 + 9.541082z245z11z1 <= 8.52
s245 - s126 + 9.573749z245z126z3 <= 8.52
s245 - s71 + 9.574975z245z71z3 <= 8.52
s245 - s35 + 9.582893z245z35z1 <= 8.52
s245 - s105 + 9.590868z245z105z1 <= 8.52
s265 - s11 + 9.564907z265z11z1 <= 8.55
s265 - s11 + 9.564907z265z11z2 <= 8.55
s265 - s126 + 9.604975z265z126z2 <= 8.55
s265 - s173 + 9.592164z265z173z2 <= 8.55
s265 - s71 + 9.594722z265z71z2 <= 8.55
s265 - s35 + 9.613246z265z35z1 <= 8.55
s265 - s105 + 9.616667z265z105z1 <= 8.55
s11 - s126 + 9.630552z11z126z2 <= 8.59
s11 - s173 + 9.623333z11z173z2 <= 8.59
s11 - s71 + 9.623994z11z71z2 <= 8.59
s11 - s35 + 9.638535z11z35z1 <= 8.59
s11 - s105 + 9.642069z11z105z1 <= 8.59
s173 - s71 + 9.706667z173z71z2 <= 8.70
s35 - s105 + 9.741082z35z105z1 <= 8.72

x61x118x2 - 2z61z118z2 <= 0
x61x233x2 - 1z61z233z2 <= 0
x61x20x2 - 2z61z20z2 <= 0
x61x66x2 - 1z61z66z2 <= 0
x61x168x2 - 2z61z168z2 <= 0
x61x293x2 - 1z61z293z2 <= 0
x61x265x2 - 1z61z265z2 <= 0
x61x11x2 - 1z61z11z2 <= 0
x61x220x2 - 2z61z220z2 <= 0
x61x126x2 - 1z61z126z2 <= 0
x61x173x2 - 2z61z173z2 <= 0
x61x71x2 - 1z61z71z2 <= 0
x172x87x1 - 1z172z87z1 <= 0
x172x233x1 - 1z172z233z1 <= 0
x172x51x1 - 2z172z51z1 <= 0
x172x293x1 - 1z172z293z1 <= 0
x172x245x1 - 1z172z245z1 <= 0
x172x265x1 - 1z172z265z1 <= 0
x172x11x1 - 1z172z11z1 <= 0
x172x35x1 - 2z172z35z1 <= 0
x172x105x1 - 2z172z105z1 <= 0
x238x87x1 - 1z238z87z1 <= 0
x238x233x1 - 1z238z233z1 <= 0
x238x51x1 - 2z238z51z1 <= 0
x238x293x1 - 1z238z293z1 <= 0
x238x245x1 - 1z238z245z1 <= 0
x238x265x1 - 1z238z265z1 <= 0
x238x11x1 - 1z238z11z1 <= 0
x238x35x1 - 2z238z35z1 <= 0
x238x105x1 - 2z238z105z1 <= 0
x44x105x1 - 2z44z105z1 <= 0
x125x126x3 - 1z125z126z3 <= 0
x125x71x3 - 1z125z71z3 <= 0
x271x87x1 - 1z271z87z1 <= 0
x271x51x1 - 2z271z51z1 <= 0
x271x245x1 - 1z271z245z1 <= 0
x271x265x1 - 1z271z265z1 <= 0
x271x11x1 - 1z271z11z1 <= 0
x271x35x1 - 2z271z35z1 <= 0
x271x105x1 - 2z271z105z1 <= 0
x134x87x1 - 1z134z87z1 <= 0
x134x233x1 - 1z134z233z1 <= 0
x134x51x1 - 2z134z51z1 <= 0
x134x293x1 - 1z134z293z1 <= 0
x134x245x1 - 1z134z245z1 <= 0
x134x265x1 - 1z134z265z1 <= 0
x134x11x1 - 1z134z11z1 <= 0
x134x35x1 - 2z134z35z1 <= 0
x134x105x1 - 2z134z105z1 <= 0
x151x173x2 - 2z151z173z2 <= 0
x151x71x2 - 1z151z71z2 <= 0
x151x35x1 - 2z151z35z1 <= 0
x151x105x1 - 2z151z105z1 <= 0
x118x11x2 - 1z118z11z2 <= 0
x118x220x2 - 2z118z220z2 <= 0
x118x126x2 - 1z118z126z2 <= 0
x118x173x2 - 2z118z173z2 <= 0
x118x71x2 - 1z118z71z2 <= 0
x118x0x2 <= 2
x87x51x1 - 2z87z51z1 <= 0
x87x11x1 - 1z87z11z1 <= 0
x87x126x3 - 1z87z126z3 <= 0
x87x71x3 - 1z87z71z3 <= 0
x87x35x1 - 2z87z35z1 <= 0
x87x105x1 - 2z87z105z1 <= 0
x87x0x1 <= 1
x87x0x3 <= 1
x233x66x2 - 1z233z66z2 <= 0
x233x168x2 - 2z233z168z2 <= 0
x233x293x1 - 1z233z293z1 <= 0
x233x293x2 - 1z233z293z2 <= 0
x233x245x1 - 1z233z245z1 <= 0
x233x265x1 - 1z233z265z1 <= 0
x233x265x2 - 1z233z265z2 <= 0
x233x11x1 - 1z233z11z1 <= 0
x233x11x2 - 1z233z11z2 <= 0
x233x220x2 - 2z233z220z2 <= 0
x233x126x2 - 1z233z126z2 <= 0
x233x173x2 - 2z233z173z2 <= 0
x233x71x2 - 1z233z71z2 <= 0
x233x35x1 - 2z233z35z1 <= 0
x233x105x1 - 2z233z105z1 <= 0
x233x0x1 <= 1
x233x0x2 <= 1
x20x11x2 - 1z20z11z2 <= 0
x20x220x2 - 2z20z220z2 <= 0
x20x126x2 - 1z20z126z2 <= 0
x20x173x2 - 2z20z173z2 <= 0
x20x71x2 - 1z20z71z2 <= 0
x20x0x2 <= 2
x51x35x1 - 2z51z35z1 <= 0
x51x105x1 - 2z51z105z1 <= 0
x51x0x1 <= 2
x66x245x3 - 1z66z245z3 <= 0
x66x265x2 - 1z66z265z2 <= 0
x66x11x2 - 1z66z11z2 <= 0
x66x220x2 - 2z66z220z2 <= 0
x66x126x2 - 1z66z126z2 <= 0
x66x126x3 - 1z66z126z3 <= 0
x66x173x2 - 2z66z173z2 <= 0
x66x71x2 - 1z66z71z2 <= 0
x66x71x3 - 1z66z71z3 <= 0
x66x0x2 <= 1
x66x0x3 <= 1
x168x265x2 - 1z168z265z2 <= 0
x168x11x2 - 1z168z11z2 <= 0
x168x220x2 - 2z168z220z2 <= 0
x168x126x2 - 1z168z126z2 <= 0
x168x173x2 - 2z168z173z2 <= 0
x168x71x2 - 1z168z71z2 <= 0
x168x0x2 <= 2
x293x245x1 - 1z293z245z1 <= 0
x293x265x1 - 1z293z265z1 <= 0
x293x265x2 - 1z293z265z2 <= 0
x293x11x1 - 1z293z11z1 <= 0
x293x11x2 - 1z293z11z2 <= 0
x293x220x2 - 2z293z220z2 <= 0
x293x126x2 - 1z293z126z2 <= 0
x293x173x2 - 2z293z173z2 <= 0
x293x71x2 - 1z293z71z2 <= 0
x293x35x1 - 2z293z35z1 <= 0
x293x105x1 - 2z293z105z1 <= 0
x293x0x1 <= 1
x293x0x2 <= 1
x245x265x1 - 1z245z265z1 <= 0
x245x11x1 - 1z245z11z1 <= 0
x245x126x3 - 1z245z126z3 <= 0
x245x71x3 - 1z245z71z3 <= 0
x245x35x1 - 2z245z35z1 <= 0
x245x105x1 - 2z245z105z1 <= 0
x245x0x1 <= 1
x245x0x3 <= 1
x265x11x1 - 1z265z11z1 <= 0
x265x11x2 - 1z265z11z2 <= 0
x265x126x2 - 1z265z126z2 <= 0
x265x173x2 - 2z265z173z2 <= 0
x265x71x2 - 1z265z71z2 <= 0
x265x35x1 - 2z265z35z1 <= 0
x265x105x1 - 2z265z105z1 <= 0
x265x0x1 <= 1
x265x0x2 <= 1
x11x126x2 - 1z11z126z2 <= 0
x11x173x2 - 2z11z173z2 <= 0
x11x71x2 - 1z11z71z2 <= 0
x11x35x1 - 2z11z35z1 <= 0
x11x105x1 - 2z11z105z1 <= 0
x11x0x1 <= 1
x11x0x2 <= 1
x220x0x2 <= 2
x126x0x2 <= 1
x126x0x3 <= 1
x173x71x2 - 1z173z71z2 <= 0
x173x0x2 <= 2
x71x0x2 <= 1
x71x0x3 <= 1
x35x105x1 - 2z35z105z1 <= 0
x35x0x1 <= 2
x105x0x1 <= 2

s118 - 6.00z61z118z2 >= 0
s87 - 6.00z172z87z1 >= 0
s87 - 6.00z238z87z1 >= 0
s87 - 6.00z271z87z1 >= 0
s87 - 6.00z134z87z1 >= 0
s233 - 6.00z61z233z2 >= 0
s233 - 6.00z172z233z1 >= 0
s233 - 6.00z238z233z1 >= 0
s233 - 6.00z134z233z1 >= 0
s20 - 6.00z61z20z2 >= 0
s51 - 6.00z172z51z1 >= 0
s51 - 6.00z238z51z1 >= 0
s51 - 6.00z271z51z1 >= 0
s51 - 6.00z134z51z1 >= 0
s51 - 6.00z87z51z1 >= 0
s66 - 6.00z61z66z2 >= 0
s66 - 6.00z233z66z2 >= 0
s168 - 6.00z61z168z2 >= 0
s168 - 6.00z233z168z2 >= 0
s293 - 6.00z61z293z2 >= 0
s293 - 6.00z172z293z1 >= 0
s293 - 6.00z238z293z1 >= 0
s293 - 6.00z134z293z1 >= 0
s293 - 6.00z233z293z1 >= 0
s293 - 6.00z233z293z2 >= 0
s245 - 6.00z172z245z1 >= 0
s245 - 6.00z238z245z1 >= 0
s245 - 6.00z271z245z1 >= 0
s245 - 6.00z134z245z1 >= 0
s245 - 6.00z233z245z1 >= 0
s245 - 6.00z66z245z3 >= 0
s245 - 6.00z293z245z1 >= 0
s265 - 6.00z61z265z2 >= 0
s265 - 6.00z172z265z1 >= 0
s265 - 6.00z238z265z1 >= 0
s265 - 6.00z271z265z1 >= 0
s265 - 6.00z134z265z1 >= 0
s265 - 6.00z233z265z1 >= 0
s265 - 6.00z233z265z2 >= 0
s265 - 6.00z66z265z2 >= 0
s265 - 6.00z168z265z2 >= 0
s265 - 6.00z293z265z1 >= 0
s265 - 6.00z293z265z2 >= 0
s265 - 6.00z245z265z1 >= 0
s11 - 6.00z61z11z2 >= 0
s11 - 6.00z172z11z1 >= 0
s11 - 6.00z238z11z1 >= 0
s11 - 6.00z271z11z1 >= 0
s11 - 6.00z134z11z1 >= 0
s11 - 6.00z118z11z2 >= 0
s11 - 6.00z87z11z1 >= 0
s11 - 6.00z233z11z1 >= 0
s11 - 6.00z233z11z2 >= 0
s11 - 6.00z20z11z2 >= 0
s11 - 6.00z66z11z2 >= 0
s11 - 6.00z168z11z2 >= 0
s11 - 6.00z293z11z1 >= 0
s11 - 6.00z293z11z2 >= 0
s11 - 6.00z245z11z1 >= 0
s11 - 6.00z265z11z1 >= 0
s11 - 6.00z265z11z2 >= 0
s220 - 6.00z61z220z2 >= 0
s220 - 6.00z118z220z2 >= 0
s220 - 6.00z233z220z2 >= 0
s220 - 6.00z20z220z2 >= 0
s220 - 6.00z66z220z2 >= 0
s220 - 6.00z168z220z2 >= 0
s220 - 6.00z293z220z2 >= 0
s126 - 6.00z61z126z2 >= 0
s126 - 6.00z125z126z3 >= 0
s126 - 6.00z118z126z2 >= 0
s126 - 6.00z87z126z3 >= 0
s126 - 6.00z233z126z2 >= 0
s126 - 6.00z20z126z2 >= 0
s126 - 6.00z66z126z2 >= 0
s126 - 6.00z66z126z3 >= 0
s126 - 6.00z168z126z2 >= 0
s126 - 6.00z293z126z2 >= 0
s126 - 6.00z245z126z3 >= 0
s126 - 6.00z265z126z2 >= 0
s126 - 6.00z11z126z2 >= 0
s173 - 6.00z61z173z2 >= 0
s173 - 6.00z151z173z2 >= 0
s173 - 6.00z118z173z2 >= 0
s173 - 6.00z233z173z2 >= 0
s173 - 6.00z20z173z2 >= 0
s173 - 6.00z66z173z2 >= 0
s173 - 6.00z168z173z2 >= 0
s173 - 6.00z293z173z2 >= 0
s173 - 6.00z265z173z2 >= 0
s173 - 6.00z11z173z2 >= 0
s71 - 6.00z61z71z2 >= 0
s71 - 6.00z125z71z3 >= 0
s71 - 6.00z151z71z2 >= 0
s71 - 6.00z118z71z2 >= 0
s71 - 6.00z87z71z3 >= 0
s71 - 6.00z233z71z2 >= 0
s71 - 6.00z20z71z2 >= 0
s71 - 6.00z66z71z2 >= 0
s71 - 6.00z66z71z3 >= 0
s71 - 6.00z168z71z2 >= 0
s71 - 6.00z293z71z2 >= 0
s71 - 6.00z245z71z3 >= 0
s71 - 6.00z265z71z2 >= 0
s71 - 6.00z11z71z2 >= 0
s71 - 6.00z173z71z2 >= 0
s35 - 6.00z172z35z1 >= 0
s35 - 6.00z238z35z1 >= 0
s35 - 6.00z271z35z1 >= 0
s35 - 6.00z134z35z1 >= 0
s35 - 6.00z151z35z1 >= 0
s35 - 6.00z87z35z1 >= 0
s35 - 6.00z233z35z1 >= 0
s35 - 6.00z51z35z1 >= 0
s35 - 6.00z293z35z1 >= 0
s35 - 6.00z245z35z1 >= 0
s35 - 6.00z265z35z1 >= 0
s35 - 6.00z11z35z1 >= 0
s105 - 6.00z172z105z1 >= 0
s105 - 6.00z238z105z1 >= 0
s105 - 6.00z44z105z1 >= 0
s105 - 6.00z271z105z1 >= 0
s105 - 6.00z134z105z1 >= 0
s105 - 6.00z151z105z1 >= 0
s105 - 6.00z87z105z1 >= 0
s105 - 6.00z233z105z1 >= 0
s105 - 6.00z51z105z1 >= 0
s105 - 6.00z293z105z1 >= 0
s105 - 6.00z245z105z1 >= 0
s105 - 6.00z265z105z1 >= 0
s105 - 6.00z11z105z1 >= 0
s105 - 6.00z35z105z1 >= 0

Bounds
s61 = 6.940502
s57 = 7.251042
s100 = 7.342878
s176 = 7.316087
s172 = 6.480000
s238 = 6.530000
s231 = 7.366086
s5 = 7.631981
s44 = 7.234852
s125 = 7.286619
s271 = 7.014805
s134 = 6.860000
s56 = 7.722087
s151 = 7.316476
s149 = 8.115690
7.270000 <= s118 <= 8.270000
7.300000 <= s87 <= 8.300000
7.360000 <= s233 <= 8.360000
7.370000 <= s20 <= 8.370000
7.380000 <= s51 <= 8.380000
7.430000 <= s66 <= 8.430000
7.440000 <= s168 <= 8.440000
7.450000 <= s293 <= 8.450000
7.520000 <= s245 <= 8.520000
7.550000 <= s265 <= 8.550000
7.590000 <= s11 <= 8.590000
7.620000 <= s220 <= 8.620000
7.680000 <= s126 <= 8.680000
7.700000 <= s173 <= 8.700000
7.710000 <= s71 <= 8.710000
7.720000 <= s35 <= 8.720000
7.770000 <= s105 <= 8.770000

General
x61x118x2 x61x233x2 x61x20x2 x61x66x2 x61x168x2 x61x293x2 x61x265x2 x61x11x2 x61x220x2 x61x126x2 x61x173x2 x61x71x2 



x172x87x1 x172x233x1 x172x51x1 x172x293x1 x172x245x1 x172x265x1 x172x11x1 x172x35x1 x172x105x1 
x238x87x1 x238x233x1 x238x51x1 x238x293x1 x238x245x1 x238x265x1 x238x11x1 x238x35x1 x238x105x1 


x44x105x1 
x125x126x3 x125x71x3 
x271x87x1 x271x51x1 x271x245x1 x271x265x1 x271x11x1 x271x35x1 x271x105x1 
x134x87x1 x134x233x1 x134x51x1 x134x293x1 x134x245x1 x134x265x1 x134x11x1 x134x35x1 x134x105x1 

x151x173x2 x151x71x2 x151x35x1 x151x105x1 

x118x11x2 x118x220x2 x118x126x2 x118x173x2 x118x71x2 x118x0x2 
x87x51x1 x87x11x1 x87x126x3 x87x71x3 x87x35x1 x87x105x1 x87x0x1 x87x0x3 
x233x66x2 x233x168x2 x233x293x1 x233x293x2 x233x245x1 x233x265x1 x233x265x2 x233x11x1 x233x11x2 x233x220x2 x233x126x2 x233x173x2 x233x71x2 x233x35x1 x233x105x1 x233x0x1 x233x0x2 
x20x11x2 x20x220x2 x20x126x2 x20x173x2 x20x71x2 x20x0x2 
x51x35x1 x51x105x1 x51x0x1 
x66x245x3 x66x265x2 x66x11x2 x66x220x2 x66x126x2 x66x126x3 x66x173x2 x66x71x2 x66x71x3 x66x0x2 x66x0x3 
x168x265x2 x168x11x2 x168x220x2 x168x126x2 x168x173x2 x168x71x2 x168x0x2 
x293x245x1 x293x265x1 x293x265x2 x293x11x1 x293x11x2 x293x220x2 x293x126x2 x293x173x2 x293x71x2 x293x35x1 x293x105x1 x293x0x1 x293x0x2 
x245x265x1 x245x11x1 x245x126x3 x245x71x3 x245x35x1 x245x105x1 x245x0x1 x245x0x3 
x265x11x1 x265x11x2 x265x126x2 x265x173x2 x265x71x2 x265x35x1 x265x105x1 x265x0x1 x265x0x2 
x11x126x2 x11x173x2 x11x71x2 x11x35x1 x11x105x1 x11x0x1 x11x0x2 
x220x0x2 
x126x0x2 x126x0x3 
x173x71x2 x173x0x2 
x71x0x2 x71x0x3 
x35x105x1 x35x0x1 
x105x0x1 

Binaries
y118 y87 y233 y20 y51 y66 y168 y293 y245 y265 y11 y220 y126 y173 y71 y35 y105 
z61z118z2 z61z233z2 z61z20z2 z61z66z2 z61z168z2 z61z293z2 z61z265z2 z61z11z2 z61z220z2 z61z126z2 z61z173z2 z61z71z2 



z172z87z1 z172z233z1 z172z51z1 z172z293z1 z172z245z1 z172z265z1 z172z11z1 z172z35z1 z172z105z1 
z238z87z1 z238z233z1 z238z51z1 z238z293z1 z238z245z1 z238z265z1 z238z11z1 z238z35z1 z238z105z1 


z44z105z1 
z125z126z3 z125z71z3 
z271z87z1 z271z51z1 z271z245z1 z271z265z1 z271z11z1 z271z35z1 z271z105z1 
z134z87z1 z134z233z1 z134z51z1 z134z293z1 z134z245z1 z134z265z1 z134z11z1 z134z35z1 z134z105z1 

z151z173z2 z151z71z2 z151z35z1 z151z105z1 

z118z11z2 z118z220z2 z118z126z2 z118z173z2 z118z71z2 
z87z51z1 z87z11z1 z87z126z3 z87z71z3 z87z35z1 z87z105z1 
z233z66z2 z233z168z2 z233z293z1 z233z293z2 z233z245z1 z233z265z1 z233z265z2 z233z11z1 z233z11z2 z233z220z2 z233z126z2 z233z173z2 z233z71z2 z233z35z1 z233z105z1 
z20z11z2 z20z220z2 z20z126z2 z20z173z2 z20z71z2 
z51z35z1 z51z105z1 
z66z245z3 z66z265z2 z66z11z2 z66z220z2 z66z126z2 z66z126z3 z66z173z2 z66z71z2 z66z71z3 
z168z265z2 z168z11z2 z168z220z2 z168z126z2 z168z173z2 z168z71z2 
z293z245z1 z293z265z1 z293z265z2 z293z11z1 z293z11z2 z293z220z2 z293z126z2 z293z173z2 z293z71z2 z293z35z1 z293z105z1 
z245z265z1 z245z11z1 z245z126z3 z245z71z3 z245z35z1 z245z105z1 
z265z11z1 z265z11z2 z265z126z2 z265z173z2 z265z71z2 z265z35z1 z265z105z1 
z11z126z2 z11z173z2 z11z71z2 z11z35z1 z11z105z1 


z173z71z2 

z35z105z1 


End